78378106176292613895015,1,1,2,011,1,1,2,01,10,1,2,06,2,1,2,014,5,1,2,013,4,1,2,08,15,1,2,02,7,1,2,06,11,1,2,05,10,1,2,08,3,1,2,08,8,1,2,012,12,1,2,04,4,1,2,06,3,1,2,04,6,1,2,05,8,1,2,03,3,1,2,05,2,1,2,06,15,1,2,07,4,1,2,08,10,1,2,015,7,1,2,015,5,1,2,011,9,1,2,012,10,1,2,012,10,1,2,014,9,1,2,09,4,1,2,012,5,1,2,010,12,1,2,010,4,1,2,07,6,1,2,02,12,1,2,03,8,1,2,04,3,1,2,02,8,1,2,015,9,1,2,012,6,1,2,010,15,1,2,015,10,1,2,06,5,1,2,06,7,1,2,012,10,1,2,013,1,1,2,06,3,1,2,012,11,1,2,011,14,1,2,011,13,1,2,07,6,1,2,0